
  22   10
  10   10   10   10   10   10   10   10   10   10

   0   0   0   0   0   0   0   0   0   0   0   2 2 6 
   3  10  10  10  10  10  10  10  10  10  10   2 18 3 
   3  10  10  10  10  10  10  10  10  10  10   1 4 
   8  10  10  10  10  10  10  10  10  10  10   1 5 
   3  10  10  10  10  10  10  10  10  10  10   1 7 
   2  10  10  10  10  10  10  10  10  10  10   1 7 
   1  10  10  10  10  10  10  10  10  10  10   1 8 
   3  10  10  10  10  10  10  10  10  10  10   1 9 
   4  10  10  10  10  10  10  10  10  10  10   3 21 15 10 
  10  10  10  10  10  10  10  10  10  10  10   1 11 
   4  10  10  10  10  10  10  10  10  10  10   1 12 
   7  10  10  10  10  10  10  10  10  10  10   3 20 17 13 
   3  10  10  10  10  10  10  10  10  10  10   1 14 
   3  10  10  10  10  10  10  10  10  10  10   1 16 
   1  10  10  10  10  10  10  10  10  10  10   1 16 
   3  10  10  10  10  10  10  10  10  10  10   1 19 
   1  10  10  10  10  10  10  10  10  10  10   1 19 
   2  10  10  10  10  10  10  10  10  10  10   1 19 
   1  10  10  10  10  10  10  10  10  10  10   1 22
   8  10  10  10  10  10  10  10  10  10  10   1 22
   5  10  10  10  10  10  10  10  10  10  10   1 22
   0   0   0   0   0   0   0   0   0   0   0   0 
